20
10
489499
0
0
1 13 133 50 62 64 44 16 331 48
1
0
32 31 9 73 3 2 161 60 25 9
2
0
24 24 26 105 1 55 11 34 53 2
3
0
5 30 8 16 39 96 115 84 45 191
4
0
14 7 23 80 15 102 2 63 70 21
5
0
35 6 67 38 118 54 63 88 115 18
6
0
36 30 96 91 64 32 15 4 24 128
7
0
2 12 17 32 26 1 132 45 19 11
8
0
60 52 120 12 9 122 42 20 1 20
9
0
33 76 4 174 17 39 74 4 6 7
10
0
2 10 42 58 59 49 85 55 86 60
11
0
32 28 94 29 38 56 7 45 80 33
12
0
213 82 52 5 16 12 18 122 36 143
13
0
75 22 1 19 23 146 180 15 209 44
14
0
76 48 40 94 103 3 24 26 16 21
15
0
31 5 9 22 46 62 44 18 27 35
16
0
63 41 72 1 26 124 63 47 32 39
17
0
44 22 48 50 2 124 48 28 51 64
18
0
73 128 85 70 237 36 104 20 45 10
19
0
12 19 23 14 12 121 4 135 154 115
